Version identifier: 22.1.0.0 | 2022-03-09 | 1a383f8ce
CPXPARAM_Threads                                 1
CPXPARAM_MIP_Strategy_VariableSelect             3
CPXPARAM_TimeLimit                               599.99998105300006
1 of 1 MIP starts provided solutions.
MIP start 'm1' defined initial solution with objective 17.0000.
Tried aggregator 1 time.
MIP Presolve eliminated 20 rows and 0 columns.
MIP Presolve modified 220 coefficients.
Reduced MIP has 901 rows, 2100 columns, and 25160 nonzeros.
Reduced MIP has 2100 binaries, 0 generals, 0 SOSs, and 0 indicators.
Presolve time = 0.04 sec. (54.87 ticks)
Probing time = 0.01 sec. (8.47 ticks)
Tried aggregator 1 time.
Detecting symmetries...
MIP Presolve modified 13 coefficients.
Reduced MIP has 901 rows, 2100 columns, and 25571 nonzeros.
Reduced MIP has 2100 binaries, 0 generals, 0 SOSs, and 0 indicators.
Presolve time = 0.02 sec. (28.51 ticks)
Probing time = 0.01 sec. (8.53 ticks)
Clique table members: 495.
MIP emphasis: balance optimality and feasibility.
MIP search method: dynamic search.
Parallel mode: none, using 1 thread.
Root relaxation solution time = 0.13 sec. (142.35 ticks)

        Nodes                                         Cuts/
   Node  Left     Objective  IInf  Best Integer    Best Bound    ItCnt     Gap

*     0+    0                           17.0000     5050.0000              --- 
      0     0      100.0000   423       17.0000      100.0000     1563  488.24%
*     0+    0                           93.0000      100.0000             7.53%
      0     0        cutoff             93.0000      100.0000     1563    7.53%
Detecting symmetries...
      0     2      100.0000    44       93.0000      100.0000     1563    7.53%
Elapsed time = 2.24 sec. (2276.67 ticks, tree = 0.01 MB, solutions = 2)
      1     3      100.0000   301       93.0000      100.0000     3588    7.53%
      3     5      100.0000   362       93.0000      100.0000     6343    7.53%
      5     7      100.0000   247       93.0000      100.0000     7003    7.53%
      7     9      100.0000   287       93.0000      100.0000     9069    7.53%
      9    11      100.0000   230       93.0000      100.0000    10357    7.53%
     11    13      100.0000   192       93.0000      100.0000    12219    7.53%
     13    15      100.0000   161       93.0000      100.0000    14948    7.53%
     15    17      100.0000   157       93.0000      100.0000    17372    7.53%
     17    19      100.0000   141       93.0000      100.0000    18456    7.53%
     26    28      100.0000    85       93.0000      100.0000    22823    7.53%
Elapsed time = 6.43 sec. (6415.94 ticks, tree = 0.14 MB, solutions = 2)
     33    35      100.0000   139       93.0000      100.0000    29524    7.53%
     43    42      100.0000   107       93.0000      100.0000    36264    7.53%
     58    51      100.0000    98       93.0000      100.0000    41691    7.53%
*    66    41      integral     0       99.0000      100.0000    42687    1.01%
     76    42      100.0000    70       99.0000      100.0000    47018    1.01%
     88    42    infeasible             99.0000      100.0000    57078    1.01%
    103    43      100.0000    67       99.0000      100.0000    64690    1.01%
    116    45      100.0000    82       99.0000      100.0000    72807    1.01%
    126    47    infeasible             99.0000      100.0000    80347    1.01%
    135    54      100.0000    95       99.0000      100.0000    86785    1.01%
    141    60      100.0000    74       99.0000      100.0000    92564    1.01%
Elapsed time = 16.87 sec. (16448.81 ticks, tree = 0.34 MB, solutions = 3)
    154    65    infeasible             99.0000      100.0000    98778    1.01%
    164    67      100.0000    89       99.0000      100.0000   107254    1.01%
    176    71      100.0000    84       99.0000      100.0000   114841    1.01%
    189    70    infeasible             99.0000      100.0000   124925    1.01%
    200    71      100.0000   122       99.0000      100.0000   134456    1.01%
    213    73    infeasible             99.0000      100.0000   142924    1.01%
    225    75      100.0000    69       99.0000      100.0000   151673    1.01%
    237    77      100.0000    56       99.0000      100.0000   160268    1.01%
    252    78    infeasible             99.0000      100.0000   168997    1.01%
    269    81    infeasible             99.0000      100.0000   175544    1.01%
Elapsed time = 27.39 sec. (26501.54 ticks, tree = 0.52 MB, solutions = 3)
    286    80    infeasible             99.0000      100.0000   183565    1.01%
    301    82    infeasible             99.0000      100.0000   191015    1.01%
    317    85    infeasible             99.0000      100.0000   198064    1.01%
    331    87      100.0000    61       99.0000      100.0000   205750    1.01%
    345    91    infeasible             99.0000      100.0000   212910    1.01%
    359    90      100.0000    42       99.0000      100.0000   222170    1.01%
    372    88      100.0000    62       99.0000      100.0000   231540    1.01%
    387    87    infeasible             99.0000      100.0000   240545    1.01%
    407    83      100.0000    61       99.0000      100.0000   249415    1.01%
    424    81    infeasible             99.0000      100.0000   256962    1.01%
Elapsed time = 37.60 sec. (36266.41 ticks, tree = 0.52 MB, solutions = 3)
    439    76    infeasible             99.0000      100.0000   267158    1.01%
    454    78      100.0000   110       99.0000      100.0000   274452    1.01%
    464    82      100.0000    80       99.0000      100.0000   281165    1.01%
    477    81    infeasible             99.0000      100.0000   290009    1.01%
    490    84      100.0000   124       99.0000      100.0000   297866    1.01%
    507    91    infeasible             99.0000      100.0000   301826    1.01%
    521    97      100.0000   113       99.0000      100.0000   307522    1.01%
    534    98    infeasible             99.0000      100.0000   315386    1.01%
    547   101      100.0000    70       99.0000      100.0000   322132    1.01%
    560   108      100.0000    66       99.0000      100.0000   328131    1.01%
Elapsed time = 48.09 sec. (46299.78 ticks, tree = 0.73 MB, solutions = 3)
    570   113      100.0000   126       99.0000      100.0000   334773    1.01%
    583   114      100.0000    70       99.0000      100.0000   342618    1.01%
    591   116      100.0000   102       99.0000      100.0000   351291    1.01%
    600   119      100.0000   111       99.0000      100.0000   357436    1.01%
    614   121    infeasible             99.0000      100.0000   364691    1.01%
    627   125      100.0000   138       99.0000      100.0000   371642    1.01%
    639   137      100.0000    62       99.0000      100.0000   375413    1.01%
    649   147      100.0000    78       99.0000      100.0000   380249    1.01%
    660   156      100.0000   122       99.0000      100.0000   385184    1.01%
    675   159      100.0000    76       99.0000      100.0000   392559    1.01%
Elapsed time = 58.33 sec. (56060.25 ticks, tree = 1.14 MB, solutions = 3)
    687   159    infeasible             99.0000      100.0000   401948    1.01%
    700   160    infeasible             99.0000      100.0000   410848    1.01%
    711   163      100.0000   111       99.0000      100.0000   419679    1.01%
    721   166      100.0000   125       99.0000      100.0000   427579    1.01%
    731   170      100.0000    98       99.0000      100.0000   435106    1.01%
    741   178      100.0000    70       99.0000      100.0000   440098    1.01%
    754   181      100.0000    80       99.0000      100.0000   447342    1.01%
    772   187      100.0000    64       99.0000      100.0000   451826    1.01%
    786   201      100.0000    62       99.0000      100.0000   452845    1.01%
    800   215      100.0000    68       99.0000      100.0000   454957    1.01%
Elapsed time = 68.96 sec. (66210.62 ticks, tree = 1.59 MB, solutions = 3)
    812   227      100.0000   133       99.0000      100.0000   458176    1.01%
    827   240      100.0000   111       99.0000      100.0000   460233    1.01%
    844   247      100.0000   133       99.0000      100.0000   464211    1.01%
    866   252      100.0000   104       99.0000      100.0000   468418    1.01%
    882   250      100.0000   105       99.0000      100.0000   477554    1.01%
    897   255    infeasible             99.0000      100.0000   484494    1.01%
    915   259      100.0000    82       99.0000      100.0000   489377    1.01%
    928   255    infeasible             99.0000      100.0000   500386    1.01%
    944   258      100.0000   156       99.0000      100.0000   508140    1.01%
    959   261      100.0000   120       99.0000      100.0000   514585    1.01%
Elapsed time = 79.22 sec. (76006.23 ticks, tree = 1.97 MB, solutions = 3)
    973   263      100.0000    60       99.0000      100.0000   521678    1.01%
    983   267    infeasible             99.0000      100.0000   529403    1.01%
    996   268    infeasible             99.0000      100.0000   537862    1.01%
   1011   271      100.0000   106       99.0000      100.0000   544240    1.01%
   1026   276      100.0000    46       99.0000      100.0000   550763    1.01%
   1042   278      100.0000    44       99.0000      100.0000   559034    1.01%
   1063   277      100.0000    48       99.0000      100.0000   567689    1.01%
   1082   276    infeasible             99.0000      100.0000   576181    1.01%
   1095   277    infeasible             99.0000      100.0000   584391    1.01%
   1111   281    infeasible             99.0000      100.0000   590528    1.01%
Elapsed time = 89.64 sec. (85859.28 ticks, tree = 2.13 MB, solutions = 3)
   1126   282      100.0000   134       99.0000      100.0000   598318    1.01%
   1142   286      100.0000   114       99.0000      100.0000   605314    1.01%
   1159   287      100.0000    91       99.0000      100.0000   613774    1.01%
   1174   289      100.0000    40       99.0000      100.0000   621927    1.01%
   1188   290      100.0000    88       99.0000      100.0000   629070    1.01%
   1200   294      100.0000   121       99.0000      100.0000   636331    1.01%
   1216   296    infeasible             99.0000      100.0000   643465    1.01%
   1227   299      100.0000   138       99.0000      100.0000   650830    1.01%
   1239   305      100.0000   125       99.0000      100.0000   656142    1.01%
   1293   318    infeasible             99.0000      100.0000   686620    1.01%
Elapsed time = 103.29 sec. (98752.14 ticks, tree = 2.43 MB, solutions = 3)
   1357   327      100.0000    62       99.0000      100.0000   716956    1.01%
   1414   345    infeasible             99.0000      100.0000   742904    1.01%

Performing restart 1

Repeating presolve.
Tried aggregator 1 time.
MIP Presolve eliminated 1 rows and 100 columns.
Reduced MIP has 900 rows, 2000 columns, and 18310 nonzeros.
Reduced MIP has 2000 binaries, 0 generals, 0 SOSs, and 0 indicators.
Presolve time = 0.01 sec. (9.18 ticks)
Tried aggregator 1 time.
Reduced MIP has 900 rows, 2000 columns, and 18310 nonzeros.
Reduced MIP has 2000 binaries, 0 generals, 0 SOSs, and 0 indicators.
Presolve time = 0.01 sec. (11.52 ticks)
Represolve time = 0.09 sec. (57.18 ticks)
   1445     0      100.0000   120       99.0000       Cuts: 3   764189    1.01%
   1445     0      100.0000   206       99.0000      Cuts: 67   765214    1.01%
   1445     2      100.0000   107       99.0000      100.0000   765214    1.01%
   1476    33      100.0000   153       99.0000      100.0000   777483    1.01%
   1545    42      100.0000   116       99.0000      100.0000   795495    1.01%
   1642    45      100.0000   109       99.0000      100.0000   808665    1.01%
   1742    49    infeasible             99.0000      100.0000   820774    1.01%
   1828    53      100.0000   114       99.0000      100.0000   837857    1.01%
   1921    52      100.0000   106       99.0000      100.0000   854902    1.01%
   2020    45      100.0000   140       99.0000      100.0000   869970    1.01%
Elapsed time = 146.37 sec. (139991.89 ticks, tree = 0.32 MB, solutions = 3)
   2116    41      100.0000   103       99.0000      100.0000   884006    1.01%
   2202    45      100.0000    99       99.0000      100.0000   897249    1.01%
   2297    47      100.0000   101       99.0000      100.0000   908674    1.01%
   2372    50    infeasible             99.0000      100.0000   934820    1.01%
   2465    45      100.0000   108       99.0000      100.0000   949167    1.01%
   2549    47      100.0000   102       99.0000      100.0000   967467    1.01%
   2648    44    infeasible             99.0000      100.0000   980229    1.01%
   2745    43    infeasible             99.0000      100.0000   994620    1.01%
   2839    47      100.0000   126       99.0000      100.0000  1006124    1.01%
   2932    46      100.0000   127       99.0000      100.0000  1017441    1.01%
Elapsed time = 185.65 sec. (178378.43 ticks, tree = 0.34 MB, solutions = 3)
   3023    53      100.0000   113       99.0000      100.0000  1029277    1.01%
   3126    52      100.0000    85       99.0000      100.0000  1041219    1.01%
   3217    52      100.0000   112       99.0000      100.0000  1055308    1.01%
   3304    67      100.0000   120       99.0000      100.0000  1065135    1.01%
   3398    57      100.0000    89       99.0000      100.0000  1082076    1.01%
   3478    51    infeasible             99.0000      100.0000  1100504    1.01%
   3547    52      100.0000    86       99.0000      100.0000  1119390    1.01%
   3644    47      100.0000   116       99.0000      100.0000  1132299    1.01%
   3718    48      100.0000   122       99.0000      100.0000  1156157    1.01%
   3797    42      100.0000    95       99.0000      100.0000  1177100    1.01%
Elapsed time = 224.72 sec. (216811.50 ticks, tree = 0.30 MB, solutions = 3)
   3884    42      100.0000    85       99.0000      100.0000  1191372    1.01%
   3974    52      100.0000    64       99.0000      100.0000  1202484    1.01%
   4069    43      100.0000   117       99.0000      100.0000  1215187    1.01%
   4145    43      100.0000   149       99.0000      100.0000  1227093    1.01%
   4223    49      100.0000   156       99.0000      100.0000  1240347    1.01%
*  4253     1      integral     0      100.0000      100.0000  1243824    0.00%

Clique cuts applied:  4
Cover cuts applied:  3
Mixed integer rounding cuts applied:  2

Root node processing (before b&c):
  Real time             =    2.24 sec. (2276.73 ticks)
Sequential b&c:
  Real time             =  245.26 sec. (236852.22 ticks)
                          ------------
Total (root+branch&cut) =  247.51 sec. (239128.95 ticks)
Primal:	100
Dual:	100
Status:	Optimal
Time:	247.5
Sequence:
	8
	15
	12
	11
	13
	6
	8
	4
	1
	11
	13
	0
	8
	4
	1
	6
	19
	5
	12
	17
	10
	1
	14
	10
	6
	19
	16
	2
	15
	18
	9
	15
	5
	9
	0
	5
	19
	3
	18
	17
	12
	5
	19
	0
	16
	17
	1
	10
	14
	3
	5
	14
	12
	10
	17
	1
	10
	14
	2
	5
	14
	2
	16
	17
	1
	5
	19
	3
	16
	4
	9
	5
	13
	7
	5
	13
	9
	5
	4
	9
	5
	15
	9
	16
	15
	6
	8
	13
	2
	11
	13
	12
	11
	4
	1
	8
	15
	3
	16
	19
